200
120
99
99
99
99
98
98
96
95
95
92
92
92
91
91
91
91
89
89
89
88
88
87
85
85
84
84
84
83
83
83
83
83
82
81
80
80
79
79
77
77
76
74
73
73
73
73
73
70
69
68
66
66
66
66
65
65
65
64
63
63
62
62
61
61
59
59
59
58
58
57
57
56
56
55
55
54
54
54
53
52
52
51
50
50
50
50
49
49
48
48
48
48
48
47
47
46
46
46
45
45
45
44
44
44
43
43
43
42
42
42
41
41
40
40
40
39
38
38
36
36
35
35
35
34
33
33
33
33
33
33
32
32
32
31
30
30
30
28
28
27
27
27
26
25
24
23
23
22
22
22
21
20
20
18
18
17
17
17
16
15
15
14
14
14
13
13
13
12
12
12
12
12
11
11
11
11
10
9
8
7
7
7
7
7
7
7
7
7
6
6
5
5
5
5
5
4
4
3
2
1
